1 -1 -2 0
1 1 -3 0
1 -1 -4 0
1 -1 -5 0
1 -1 -6 0
1 2 7 0
1 2 3 0
1 2 4 0
1 -2 1 0
1 2 8 0
1 -2 6 0
1 -9 -10 0
1 -9 4 0
1 -9 11 0
1 9 12 0
1 9 13 0
1 10 14 0
1 -10 15 0
1 -10 3 0
1 -10 -4 0
1 10 -11 0
1 -10 -12 0
1 10 9 0
1 -10 -8 0
1 10 6 0
1 4 16 0
1 -4 17 0
1 4 -18 0
1 -4 -10 0
1 -4 19 0
1 4 -20 0
1 4 21 0
1 -4 -9 0
1 -6 -22 0
1 6 -16 0
1 6 17 0
1 6 -18 0
1 -6 10 0
1 -6 2 0
1 6 -19 0
1 6 20 0
1 -3 16 0
1 3 23 0
1 3 24 0
1 -3 -25 0
1 -3 -19 0
1 -3 -26 0
1 3 -9 0
1 -3 -1 0
1 -8 -23 0
1 8 -24 0
1 8 2 0
1 8 3 0
1 -8 19 0
1 -8 -26 0
1 -8 1 0
1 21 14 0
1 21 11 0
1 -21 12 0
1 -18 14 0
1 18 -24 0
1 -18 11 0
1 -18 -12 0
1 -18 -21 0
1 -20 27 0
1 20 -17 0
1 20 4 0
1 20 11 0
1 20 -12 0
1 -20 28 0
1 -20 -29 0
1 20 -30 0
1 -17 -27 0
1 -17 -14 0
1 17 -23 0
1 17 31 0
1 -17 -4 0
1 17 -12 0
1 -17 -20 0
1 17 -28 0
1 -17 -30 0
1 12 32 0
1 12 -14 0
1 -12 18 0
1 12 -33 0
1 -12 -34 0
1 -12 35 0
1 -12 -36 0
1 12 -20 0
1 12 -37 0
1 -14 32 0
1 14 -38 0
1 -14 10 0
1 14 -12 0
1 14 20 0
1 -14 21 0
1 -14 -9 0
1 14 -37 0
1 -11 16 0
1 11 10 0
1 -11 39 0
1 -11 19 0
1 -11 20 0
1 -11 21 0
1 11 -9 0
1 27 33 0
1 -27 -11 0
1 27 20 0
1 -35 32 0
1 35 -31 0
1 -35 -12 0
1 35 -19 0
1 32 -14 0
1 -32 -16 0
1 32 40 0
1 -32 -31 0
1 -32 30 0
1 34 -40 0
1 34 -31 0
1 34 41 0
1 -34 -28 0
1 -42 43 0
1 -42 14 0
1 -42 40 0
1 42 31 0
1 -42 34 0
1 -42 28 0
1 42 30 0
1 30 -42 0
1 -30 -31 0
1 -30 44 0
1 -30 -45 0
1 -31 -42 0
1 31 17 0
1 -31 46 0
1 -31 -44 0
1 31 -34 0
1 31 -35 0
1 31 20 0
1 -31 47 0
1 28 -32 0
1 -28 17 0
1 -28 40 0
1 28 -44 0
1 28 48 0
1 -28 34 0
1 -28 20 0
1 -28 49 0
1 28 -50 0
1 40 42 0
1 40 32 0
1 40 -17 0
1 40 51 0
1 40 -44 0
1 -40 33 0
1 40 -34 0
1 40 35 0
1 40 -20 0
1 40 -28 0
1 40 37 0
1 -5 -52 0
1 5 7 0
1 -5 -53 0
1 7 -54 0
1 -7 2 0
1 -7 -55 0
1 -7 -56 0
1 7 53 0
1 7 -5 0
1 -13 -52 0
1 13 57 0
1 -13 58 0
1 13 15 0
1 -13 -53 0
1 -13 59 0
1 13 -60 0
1 -13 -9 0
1 -13 -61 0
1 15 -52 0
1 15 54 0
1 15 58 0
1 15 -10 0
1 15 -62 0
1 -15 -13 0
1 54 63 0
1 54 64 0
1 54 24 0
1 -54 15 0
1 54 7 0
1 54 53 0
1 54 -29 0
1 -54 -26 0
1 -54 -13 0
1 -53 -63 0
1 -53 24 0
1 53 15 0
1 -53 7 0
1 53 -65 0
1 53 -29 0
1 -53 26 0
1 53 13 0
1 -53 5 0
1 -52 -63 0
1 -52 -66 0
1 -52 -67 0
1 52 15 0
1 52 7 0
1 52 -56 0
1 -52 -68 0
1 -56 -52 0
1 -56 66 0
1 56 15 0
1 -56 -7 0
1 56 -69 0
1 -56 -68 0
1 56 13 0
1 -56 -5 0
1 -26 -54 0
1 26 -57 0
1 -26 -3 0
1 -26 53 0
1 -26 -21 0
1 -26 -70 0
1 26 -8 0
1 24 -54 0
1 -24 -57 0
1 -24 18 0
1 24 59 0
1 -24 -60 0
1 -24 26 0
1 24 8 0
1 29 -54 0
1 -29 -23 0
1 -29 -58 0
1 29 -71 0
1 29 -3 0
1 -29 -59 0
1 29 -20 0
1 29 68 0
1 23 54 0
1 -23 17 0
1 23 72 0
1 23 53 0
1 23 8 0
1 -58 -43 0
1 -58 15 0
1 58 -73 0
1 -58 29 0
1 58 -26 0
1 60 16 0
1 -60 -23 0
1 -60 24 0
1 60 58 0
1 -60 -15 0
1 60 41 0
1 -60 -19 0
1 60 29 0
1 -60 74 0
1 60 -26 0
1 60 13 0
1 57 -75 0
1 -57 76 0
1 57 -24 0
1 57 -77 0
1 -57 59 0
1 57 29 0
1 57 -26 0
1 57 13 0
1 -59 63 0
1 59 -23 0
1 -59 57 0
1 -59 24 0
1 -59 -15 0
1 59 73 0
1 59 -77 0
1 -59 65 0
1 -59 -29 0
1 59 -78 0
1 59 26 0
1 -59 13 0
1 19 -16 0
1 -19 72 0
1 19 -3 0
1 19 60 0
1 -19 -79 0
1 -19 -80 0
1 19 6 0
1 -16 -27 0
1 -16 -32 0
1 -16 63 0
1 16 58 0
1 -16 -71 0
1 16 72 0
1 16 3 0
1 -16 4 0
1 16 11 0
1 -16 -19 0
1 16 -60 0
1 -16 79 0
1 -16 -80 0
1 -16 6 0
1 41 -22 0
1 -41 27 0
1 41 43 0
1 41 58 0
1 41 25 0
1 -41 -81 0
1 41 34 0
1 41 77 0
1 -41 -60 0
1 41 79 0
1 41 -80 0
1 -41 -82 0
1 -43 42 0
1 43 -27 0
1 43 -72 0
1 43 25 0
1 43 81 0
1 43 -11 0
1 -43 -41 0
1 43 -60 0
1 -72 -16 0
1 -72 -83 0
1 -72 -48 0
1 -72 -41 0
1 -72 -19 0
1 72 -50 0
1 72 -37 0
1 -80 -16 0
1 80 -23 0
1 -80 72 0
1 -80 -83 0
1 80 -33 0
1 80 -84 0
1 80 19 0
1 80 -29 0
1 80 -50 0
1 -80 -37 0
1 -71 75 0
1 71 -23 0
1 -71 -85 0
1 -71 -73 0
1 -71 41 0
1 -71 -19 0
1 -71 29 0
1 -71 79 0
1 -71 -86 0
1 -71 -87 0
1 -79 -75 0
1 79 -43 0
1 -79 -16 0
1 -79 -71 0
1 -79 83 0
1 -79 -88 0
1 79 -41 0
1 79 19 0
1 79 -29 0
1 -79 89 0
1 79 -86 0
1 -33 -14 0
1 -33 -40 0
1 33 72 0
1 -33 25 0
1 33 11 0
1 -33 -12 0
1 -33 -80 0
1 -37 22 0
1 -37 -14 0
1 37 25 0
1 -37 -33 0
1 37 11 0
1 37 -12 0
1 37 80 0
1 -48 22 0
1 48 -90 0
1 48 38 0
1 48 -88 0
1 48 25 0
1 48 36 0
1 48 -28 0
1 -50 48 0
1 -50 -25 0
1 -50 -81 0
1 50 39 0
1 50 -28 0
1 50 82 0
1 50 80 0
1 50 87 0
1 -81 -91 0
1 -81 -44 0
1 81 -48 0
1 81 -41 0
1 81 47 0
1 -81 -50 0
1 22 92 0
1 22 -91 0
1 22 44 0
1 22 48 0
1 22 -33 0
1 22 81 0
1 22 6 0
1 22 47 0
1 -22 -37 0
1 25 -43 0
1 -25 83 0
1 -25 -48 0
1 -25 -3 0
1 -25 33 0
1 -25 -41 0
1 25 93 0
1 -25 -50 0
1 25 82 0
1 -82 91 0
1 -82 -94 0
1 82 -83 0
1 -82 33 0
1 82 -8 0
1 -82 93 0
1 82 86 0
1 82 95 0
1 -44 40 0
1 -44 -38 0
1 -44 83 0
1 44 -81 0
1 -44 -39 0
1 47 -90 0
1 47 -38 0
1 47 -40 0
1 47 81 0
1 47 39 0
1 47 36 0
1 47 -28 0
1 47 30 0
1 96 22 0
1 96 -90 0
1 96 -51 0
1 -96 -97 0
1 96 46 0
1 96 -94 0
1 96 -81 0
1 96 36 0
1 -96 49 0
1 97 90 0
1 97 51 0
1 97 -96 0
1 97 81 0
1 -97 -49 0
1 -97 45 0
1 -97 -98 0
1 36 -99 0
1 -36 -100 0
1 -36 96 0
1 36 48 0
1 -36 101 0
1 -36 -102 0
1 -36 -97 0
1 36 47 0
1 38 -99 0
1 38 103 0
1 38 -100 0
1 -38 -104 0
1 -38 96 0
1 38 -44 0
1 -38 48 0
1 -38 -102 0
1 -38 -36 0
1 -38 -97 0
1 38 47 0
1 38 -50 0
1 39 -90 0
1 -39 -99 0
1 -39 -105 0
1 39 96 0
1 -39 -44 0
1 -39 106 0
1 39 -93 0
1 -39 -97 0
1 39 -47 0
1 -39 -50 0
1 90 -27 0
1 -90 107 0
1 -90 99 0
1 -90 91 0
1 90 -48 0
1 -90 -101 0
1 90 -108 0
1 90 -47 0
1 104 38 0
1 104 91 0
1 104 -49 0
1 104 109 0
1 104 45 0
1 -109 46 0
1 -100 51 0
1 -100 102 0
1 102 38 0
1 102 -100 0
1 -102 51 0
1 102 -108 0
1 102 49 0
1 -45 -110 0
1 -45 -100 0
1 45 46 0
1 45 -96 0
1 -45 111 0
1 45 -102 0
1 45 -30 0
1 46 -110 0
1 46 -100 0
1 -46 112 0
1 46 96 0
1 46 -111 0
1 46 -97 0
1 46 45 0
1 -49 -110 0
1 -49 113 0
1 -49 100 0
1 -49 -96 0
1 49 114 0
1 49 101 0
1 49 102 0
1 -49 115 0
1 51 -99 0
1 -51 -116 0
1 51 104 0
1 51 -96 0
1 -51 -114 0
1 51 102 0
1 -51 -109 0
1 -117 -118 0
1 117 119 0
1 117 -120 0
1 -55 -118 0
1 55 -7 0
1 -55 -121 0
1 -55 -119 0
1 -55 122 0
1 55 -117 0
1 -61 123 0
1 -61 -62 0
1 61 -119 0
1 61 122 0
1 -62 118 0
1 -62 124 0
1 -62 -123 0
1 62 -15 0
1 62 -125 0
1 62 119 0
1 -62 122 0
1 62 -61 0
1 -122 126 0
1 -122 67 0
1 -122 55 0
1 122 -127 0
1 -122 128 0
1 122 -61 0
1 -122 -117 0
1 124 122 0
1 -124 -66 0
1 124 67 0
1 124 62 0
1 124 55 0
1 124 -127 0
1 -124 -68 0
1 124 -70 0
1 124 -61 0
1 124 117 0
1 119 118 0
1 119 126 0
1 119 129 0
1 119 62 0
1 -119 -55 0
1 119 127 0
1 119 130 0
1 -119 131 0
1 -119 -61 0
1 -119 117 0
1 -118 132 0
1 118 -129 0
1 118 62 0
1 -118 -55 0
1 118 -130 0
1 -118 131 0
1 -70 -124 0
1 -70 -26 0
1 -70 131 0
1 67 52 0
1 -67 124 0
1 67 -24 0
1 67 123 0
1 -67 129 0
1 -67 -133 0
1 -67 56 0
1 -67 122 0
1 -67 70 0
1 -68 52 0
1 68 -123 0
1 68 133 0
1 68 134 0
1 68 -135 0
1 -68 56 0
1 68 -29 0
1 -68 130 0
1 68 136 0
1 68 -137 0
1 -68 138 0
1 66 52 0
1 -66 122 0
1 66 -124 0
1 -66 123 0
1 66 -135 0
1 -66 56 0
1 -66 -68 0
1 66 137 0
1 -66 -138 0
1 137 139 0
1 -137 66 0
1 -137 62 0
1 137 -133 0
1 -137 -140 0
1 137 77 0
1 -137 -68 0
1 -137 70 0
1 137 61 0
1 137 -141 0
1 133 -142 0
1 -133 -139 0
1 133 62 0
1 133 143 0
1 133 140 0
1 133 77 0
1 -133 65 0
1 -133 137 0
1 -133 68 0
1 133 61 0
1 -136 144 0
1 136 -126 0
1 136 66 0
1 -136 -140 0
1 -136 -145 0
1 -136 68 0
1 136 -70 0
1 136 146 0
1 136 -61 0
1 123 142 0
1 123 -144 0
1 123 -126 0
1 123 66 0
1 123 -67 0
1 -123 147 0
1 -123 145 0
1 -123 70 0
1 -123 61 0
1 65 148 0
1 -65 -52 0
1 -65 -54 0
1 -65 -63 0
1 65 -57 0
1 65 -133 0
1 65 134 0
1 65 -135 0
1 65 -56 0
1 65 -53 0
1 -65 127 0
1 -65 -137 0
1 -63 -52 0
1 -63 -16 0
1 63 -57 0
1 -63 126 0
1 63 134 0
1 63 135 0
1 63 -56 0
1 63 53 0
1 -63 -59 0
1 -77 -148 0
1 77 64 0
1 -77 -57 0
1 77 -134 0
1 77 135 0
1 -77 -69 0
1 77 -149 0
1 77 -145 0
1 -77 137 0
1 139 -148 0
1 139 -43 0
1 139 150 0
1 -139 144 0
1 139 64 0
1 139 -133 0
1 -139 -135 0
1 139 59 0
1 -139 138 0
1 -148 75 0
1 -148 151 0
1 148 63 0
1 -148 66 0
1 148 152 0
1 148 -135 0
1 148 -77 0
1 -148 65 0
1 -148 -153 0
1 -148 -87 0
1 -135 148 0
1 -135 -66 0
1 135 -152 0
1 135 73 0
1 135 77 0
1 135 -153 0
1 138 -142 0
1 -138 -139 0
1 -138 -154 0
1 -138 66 0
1 -138 152 0
1 -138 155 0
1 -138 -68 0
1 138 -153 0
1 138 156 0
1 -134 -142 0
1 134 139 0
1 134 63 0
1 -134 -66 0
1 -134 -152 0
1 -134 77 0
1 134 -68 0
1 134 153 0
1 -73 -75 0
1 73 -148 0
1 73 -64 0
1 73 135 0
1 73 149 0
1 -73 60 0
1 -75 148 0
1 75 150 0
1 75 -64 0
1 75 71 0
1 75 135 0
1 -75 73 0
1 75 69 0
1 75 59 0
1 -75 79 0
1 -88 157 0
1 88 48 0
1 88 135 0
1 88 155 0
1 88 149 0
1 88 -78 0
1 88 79 0
1 87 148 0
1 -87 -150 0
1 87 -71 0
1 -87 -88 0
1 87 -135 0
1 -87 149 0
1 -87 -78 0
1 -87 50 0
1 87 156 0
1 -64 75 0
1 64 -54 0
1 -64 158 0
1 -64 -159 0
1 64 94 0
1 64 -77 0
1 -64 -149 0
1 -64 160 0
1 -64 -98 0
1 -64 -87 0
1 149 -75 0
1 149 -159 0
1 149 -94 0
1 -149 83 0
1 -149 -73 0
1 149 -53 0
1 149 -161 0
1 -149 -160 0
1 -149 -98 0
1 -149 -87 0
1 150 75 0
1 -150 52 0
1 -150 139 0
1 -150 162 0
1 150 159 0
1 150 -163 0
1 -150 -69 0
1 -150 -164 0
1 150 153 0
1 -69 75 0
1 -69 139 0
1 -69 159 0
1 -69 88 0
1 -69 56 0
1 -69 165 0
1 69 77 0
1 69 160 0
1 69 -164 0
1 69 153 0
1 -69 87 0
1 -83 64 0
1 -83 -76 0
1 -83 44 0
1 83 -152 0
1 83 149 0
1 83 -74 0
1 -86 64 0
1 86 -157 0
1 -86 80 0
1 -86 -25 0
1 86 -149 0
1 86 78 0
1 -86 74 0
1 -86 79 0
1 -86 47 0
1 -86 -153 0
1 -86 82 0
1 94 -64 0
1 -94 -76 0
1 94 -157 0
1 94 85 0
1 94 -163 0
1 -94 166 0
1 -94 149 0
1 94 78 0
1 94 74 0
1 94 -84 0
1 98 76 0
1 -98 -78 0
1 98 -97 0
1 98 89 0
1 -98 164 0
1 -157 -74 0
1 157 -167 0
1 -157 -105 0
1 -157 -58 0
1 157 -168 0
1 157 94 0
1 157 -88 0
1 -157 -93 0
1 -157 -98 0
1 -74 91 0
1 -74 83 0
1 74 88 0
1 -74 -108 0
1 74 -98 0
1 -74 -86 0
1 -76 57 0
1 76 169 0
1 76 159 0
1 76 94 0
1 -76 83 0
1 -76 88 0
1 -76 -78 0
1 -76 98 0
1 76 87 0
1 -78 167 0
1 -78 76 0
1 78 159 0
1 -78 -94 0
1 -78 -83 0
1 -78 -170 0
1 78 -160 0
1 78 -98 0
1 -78 -86 0
1 91 -22 0
1 91 90 0
1 91 -104 0
1 -91 159 0
1 -91 -25 0
1 91 81 0
1 91 -39 0
1 -91 -84 0
1 -91 82 0
1 -93 22 0
1 93 90 0
1 -93 -91 0
1 -93 -157 0
1 -93 166 0
1 93 -25 0
1 -93 -81 0
1 -93 -39 0
1 -93 -160 0
1 -93 -89 0
1 93 -84 0
1 93 82 0
1 105 -100 0
1 -105 169 0
1 105 157 0
1 105 -171 0
1 105 -172 0
1 -105 -108 0
1 105 74 0
1 -105 -89 0
1 108 92 0
1 -108 90 0
1 108 -105 0
1 108 157 0
1 108 85 0
1 108 39 0
1 108 -74 0
1 108 89 0
1 108 -95 0
1 166 113 0
1 -166 99 0
1 166 -91 0
1 -166 -94 0
1 166 -72 0
1 166 -114 0
1 -166 -101 0
1 -166 98 0
1 -166 -84 0
1 -84 -99 0
1 -84 105 0
1 84 166 0
1 -84 114 0
1 84 -108 0
1 84 93 0
1 84 80 0
1 85 -173 0
1 85 174 0
1 85 89 0
1 -85 91 0
1 -85 71 0
1 85 175 0
1 85 -170 0
1 -85 108 0
1 -85 -93 0
1 89 173 0
1 -89 167 0
1 -89 -105 0
1 -89 91 0
1 -89 94 0
1 89 -176 0
1 89 175 0
1 89 -170 0
1 89 -108 0
1 -89 -93 0
1 -89 -79 0
1 -99 92 0
1 99 -90 0
1 -99 -38 0
1 99 167 0
1 99 166 0
1 -99 -171 0
1 99 -172 0
1 101 -90 0
1 -101 -38 0
1 -101 172 0
1 101 -170 0
1 -101 -36 0
1 -101 95 0
1 113 -92 0
1 -113 -174 0
1 -113 -107 0
1 -113 -103 0
1 -113 51 0
1 113 -114 0
1 113 172 0
1 113 106 0
1 113 177 0
1 -113 49 0
1 113 84 0
1 114 92 0
1 -114 -113 0
1 -114 107 0
1 114 -171 0
1 -114 -172 0
1 114 106 0
1 114 49 0
1 114 -84 0
1 -172 -110 0
1 -172 -92 0
1 -172 113 0
1 -172 105 0
1 -172 178 0
1 -172 179 0
1 -172 -101 0
1 -172 -108 0
1 -92 110 0
1 -92 -22 0
1 92 -113 0
1 -92 -180 0
1 -92 178 0
1 -92 -111 0
1 -92 -114 0
1 92 101 0
1 92 181 0
1 -171 -105 0
1 171 178 0
1 171 25 0
1 171 176 0
1 171 -114 0
1 -171 108 0
1 -171 181 0
1 -171 -95 0
1 171 -182 0
1 95 -183 0
1 95 -173 0
1 95 -113 0
1 95 99 0
1 95 -105 0
1 -95 178 0
1 95 184 0
1 95 114 0
1 95 101 0
1 95 108 0
1 95 182 0
1 110 -92 0
1 -110 -103 0
1 110 -51 0
1 110 111 0
1 -110 -177 0
1 110 49 0
1 110 -45 0
1 -111 -110 0
1 111 -103 0
1 -111 51 0
1 -111 -177 0
1 -111 -49 0
1 -111 -45 0
1 -185 92 0
1 185 -116 0
1 -185 -112 0
1 -185 179 0
1 -185 106 0
1 -185 115 0
1 179 -103 0
1 -179 112 0
1 179 -184 0
1 -179 172 0
1 179 -106 0
1 179 177 0
1 -179 115 0
1 179 185 0
1 177 110 0
1 177 -113 0
1 -177 -186 0
1 177 187 0
1 177 111 0
1 177 -114 0
1 -177 -188 0
1 -177 -189 0
1 -177 190 0
1 -103 -113 0
1 103 191 0
1 -103 186 0
1 -103 -179 0
1 103 -111 0
1 -103 189 0
1 -103 190 0
1 103 185 0
1 -106 -110 0
1 106 192 0
1 106 -111 0
1 -106 -114 0
1 -106 -39 0
1 106 -193 0
1 106 189 0
1 -106 -194 0
1 106 -181 0
1 107 110 0
1 107 -113 0
1 107 -195 0
1 107 186 0
1 -107 -178 0
1 107 -179 0
1 107 -111 0
1 107 -185 0
1 196 -103 0
1 -196 -112 0
1 196 -187 0
1 -196 -115 0
1 -196 181 0
1 187 112 0
1 187 -177 0
1 -187 115 0
1 -190 -116 0
1 -190 -197 0
1 -190 112 0
1 190 177 0
1 -190 115 0
1 -190 198 0
1 -190 -194 0
1 -197 198 0
1 -197 -103 0
1 197 -116 0
1 197 112 0
1 197 177 0
1 -197 115 0
1 -197 -190 0
1 198 199 0
1 -198 187 0
1 -198 -45 0
1 198 190 0
1 198 200 0
1 -198 185 0
1 -112 -198 0
1 -112 199 0
1 112 46 0
1 -112 197 0
1 -112 -201 0
1 -112 -187 0
1 112 -179 0
1 -112 -202 0
1 112 -190 0
1 -112 196 0
1 112 -185 0
1 115 -199 0
1 115 186 0
1 -115 116 0
1 115 187 0
1 115 -202 0
1 -115 203 0
1 -115 -189 0
1 -115 204 0
1 115 190 0
1 115 196 0
1 -116 205 0
1 -116 51 0
1 -116 -197 0
1 -116 -187 0
1 116 -179 0
1 116 -190 0
1 116 -185 0
1 -120 -206 0
1 120 121 0
1 -121 207 0
1 -121 -206 0
1 -121 208 0
1 -121 -209 0
1 -121 -120 0
1 -210 -211 0
1 210 -212 0
1 210 -208 0
1 -210 209 0
1 -210 61 0
1 210 -213 0
1 -210 214 0
1 -125 213 0
1 -125 62 0
1 125 206 0
1 125 211 0
1 125 212 0
1 -125 -208 0
1 -125 -209 0
1 125 -210 0
1 -125 214 0
1 206 -215 0
1 -206 -130 0
1 -206 209 0
1 -206 -210 0
1 206 -120 0
1 209 -215 0
1 -209 -129 0
1 -209 125 0
1 209 206 0
1 209 -121 0
1 -209 130 0
1 -209 131 0
1 209 -216 0
1 209 210 0
1 -209 -120 0
1 -207 125 0
1 207 217 0
1 -207 210 0
1 207 -120 0
1 208 -125 0
1 -208 121 0
1 208 218 0
1 -208 210 0
1 -131 129 0
1 131 206 0
1 131 211 0
1 -131 -212 0
1 -131 -119 0
1 131 209 0
1 131 -213 0
1 131 214 0
1 -129 118 0
1 -129 -209 0
1 -129 131 0
1 -129 -213 0
1 129 -214 0
1 -130 219 0
1 130 -118 0
1 -130 215 0
1 -130 211 0
1 -130 -220 0
1 -130 -119 0
1 -130 -214 0
1 215 219 0
1 -215 66 0
1 -215 -211 0
1 215 212 0
1 215 -221 0
1 215 220 0
1 215 130 0
1 215 -209 0
1 215 214 0
1 -212 222 0
1 212 -144 0
1 -212 -126 0
1 -212 129 0
1 212 125 0
1 212 223 0
1 -212 214 0
1 214 224 0
1 -214 144 0
1 214 126 0
1 214 -215 0
1 -214 129 0
1 214 125 0
1 -214 -130 0
1 214 210 0
1 211 -222 0
1 -211 213 0
1 -211 215 0
1 211 -125 0
1 -211 -225 0
1 211 -226 0
1 -211 210 0
1 -213 215 0
1 213 226 0
1 213 -130 0
1 127 227 0
1 127 118 0
1 127 212 0
1 127 -220 0
1 127 65 0
1 127 -214 0
1 126 -123 0
1 -126 -220 0
1 -126 122 0
1 -126 -136 0
1 126 -214 0
1 145 144 0
1 145 -228 0
1 145 -212 0
1 -145 221 0
1 -145 77 0
1 -145 229 0
1 145 128 0
1 -145 -136 0
1 -144 219 0
1 144 -139 0
1 144 227 0
1 144 -132 0
1 -144 -123 0
1 -144 212 0
1 -144 -221 0
1 144 -220 0
1 -144 145 0
1 144 229 0
1 -144 128 0
1 144 -136 0
1 -220 227 0
1 220 215 0
1 220 -145 0
1 220 -230 0
1 -220 127 0
1 -220 -130 0
1 -220 231 0
1 227 -142 0
1 227 -144 0
1 -227 -155 0
1 -227 140 0
1 -227 -220 0
1 227 130 0
1 -227 -231 0
1 -227 -156 0
1 -221 232 0
1 -221 219 0
1 221 222 0
1 221 126 0
1 -221 145 0
1 -221 -127 0
1 -221 -130 0
1 221 231 0
1 -219 -232 0
1 -219 222 0
1 -219 -233 0
1 -219 144 0
1 219 126 0
1 219 -234 0
1 -219 -235 0
1 219 -221 0
1 219 -226 0
1 -219 -145 0
1 -219 130 0
1 -140 142 0
1 -140 -227 0
1 140 -228 0
1 -140 -73 0
1 -140 229 0
1 -140 136 0
1 140 -137 0
1 -140 138 0
1 -142 227 0
1 142 228 0
1 -142 133 0
1 142 134 0
1 142 220 0
1 -142 -229 0
1 142 -128 0
1 142 -138 0
1 -155 -227 0
1 155 132 0
1 155 -228 0
1 155 -235 0
1 -155 220 0
1 155 229 0
1 -155 -146 0
1 -156 -227 0
1 -156 132 0
1 156 228 0
1 156 -143 0
1 156 -134 0
1 -156 -220 0
1 156 128 0
1 -156 -146 0
1 156 138 0
1 -128 228 0
1 128 -236 0
1 -128 163 0
1 -128 -152 0
1 128 -122 0
1 -128 -164 0
1 128 153 0
1 228 -144 0
1 228 237 0
1 228 236 0
1 228 -152 0
1 -228 155 0
1 228 -140 0
1 228 -145 0
1 228 -128 0
1 -228 -164 0
1 -228 -153 0
1 228 156 0
1 229 142 0
1 229 -236 0
1 -229 -238 0
1 229 -234 0
1 -229 -140 0
1 229 -145 0
1 229 239 0
1 -229 240 0
1 229 231 0
1 -229 156 0
1 -132 -142 0
1 132 144 0
1 132 118 0
1 -132 -241 0
1 -132 -236 0
1 132 238 0
1 -132 234 0
1 -132 155 0
1 132 140 0
1 -132 229 0
1 -132 240 0
1 -132 -231 0
1 -132 -156 0
1 -152 -228 0
1 -152 83 0
1 152 -146 0
1 -152 -138 0
1 -153 148 0
1 -153 150 0
1 153 147 0
1 153 143 0
1 153 -135 0
1 -153 -69 0
1 153 128 0
1 153 -86 0
1 153 141 0
1 -153 231 0
1 -163 151 0
1 163 228 0
1 -163 147 0
1 -163 238 0
1 -163 -242 0
1 -163 243 0
1 163 146 0
1 -163 -128 0
1 -163 -154 0
1 164 228 0
1 164 -147 0
1 164 -243 0
1 -164 -69 0
1 164 -128 0
1 -164 -98 0
1 -164 -240 0
1 -164 141 0
1 -164 154 0
1 141 143 0
1 141 155 0
1 -141 -244 0
1 141 -245 0
1 141 -160 0
1 -141 -164 0
1 -141 153 0
1 143 169 0
1 -143 133 0
1 143 -246 0
1 143 155 0
1 143 -245 0
1 143 164 0
1 -143 141 0
1 143 153 0
1 -143 -156 0
1 146 -236 0
1 -146 163 0
1 146 136 0
1 146 -155 0
1 -146 247 0
1 146 -164 0
1 -146 248 0
1 -147 -123 0
1 147 -152 0
1 -147 155 0
1 -147 -146 0
1 147 244 0
1 147 -247 0
1 -147 249 0
1 147 -164 0
1 -147 -153 0
1 -147 -156 0
1 -159 -150 0
1 159 -64 0
1 -159 76 0
1 -159 -91 0
1 -159 -236 0
1 -159 -143 0
1 159 242 0
1 -159 -69 0
1 -159 -78 0
1 -159 160 0
1 -159 -141 0
1 159 154 0
1 -160 151 0
1 -160 64 0
1 160 76 0
1 -160 159 0
1 -160 -243 0
1 -160 -141 0
1 -160 -154 0
1 -169 162 0
1 -169 76 0
1 -169 105 0
1 -169 -143 0
1 169 243 0
1 -169 -161 0
1 -169 78 0
1 169 154 0
1 245 151 0
1 245 162 0
1 245 158 0
1 245 -169 0
1 245 143 0
1 245 -242 0
1 245 -243 0
1 -245 -165 0
1 245 161 0
1 -245 78 0
1 -245 -108 0
1 245 247 0
1 -245 141 0
1 -245 154 0
1 151 148 0
1 151 250 0
1 151 -174 0
1 -151 251 0
1 151 -167 0
1 151 169 0
1 151 -243 0
1 -151 252 0
1 151 175 0
1 151 170 0
1 -151 164 0
1 243 -250 0
1 243 169 0
1 -243 -159 0
1 -243 -135 0
1 -243 -245 0
1 243 -160 0
1 243 -164 0
1 154 -253 0
1 -154 169 0
1 154 -159 0
1 154 163 0
1 -154 -242 0
1 154 -252 0
1 -154 -245 0
1 154 160 0
1 154 164 0
1 -242 -250 0
1 -242 -254 0
1 242 -159 0
1 242 134 0
1 -242 -255 0
1 -242 256 0
1 242 -245 0
1 242 -160 0
1 -167 -151 0
1 -167 99 0
1 167 158 0
1 -167 243 0
1 -167 165 0
1 -167 -170 0
1 167 78 0
1 -167 -74 0
1 167 89 0
1 -170 151 0
1 -170 167 0
1 -170 157 0
1 -170 -85 0
1 170 -101 0
1 170 165 0
1 170 244 0
1 -170 -78 0
1 -170 161 0
1 170 74 0
1 170 -89 0
1 -174 151 0
1 174 -113 0
1 -174 257 0
1 -174 162 0
1 174 -158 0
1 -174 -168 0
1 -174 85 0
1 174 175 0
1 174 -165 0
1 -174 -161 0
1 174 258 0
1 -174 -89 0
1 -175 -174 0
1 175 162 0
1 -175 -158 0
1 -175 -85 0
1 -175 -243 0
1 175 114 0
1 175 -165 0
1 -175 161 0
1 -175 -259 0
1 -175 -258 0
1 -158 -173 0
1 158 -167 0
1 158 64 0
1 158 169 0
1 158 -260 0
1 158 -184 0
1 -158 -176 0
1 -158 175 0
1 -158 170 0
1 158 161 0
1 -158 245 0
1 158 -182 0
1 161 173 0
1 -161 -167 0
1 -161 -169 0
1 161 -184 0
1 161 -175 0
1 161 261 0
1 -161 245 0
1 -161 182 0
1 162 -262 0
1 -162 -263 0
1 162 -169 0
1 162 260 0
1 -162 264 0
1 -162 252 0
1 162 165 0
1 162 170 0
1 -165 262 0
1 -165 -250 0
1 -165 167 0
1 165 260 0
1 -165 252 0
1 -165 -170 0
1 -173 110 0
1 -173 -250 0
1 -173 158 0
1 -173 265 0
1 173 -85 0
1 -173 -166 0
1 173 -171 0
1 173 -258 0
1 173 -89 0
1 -173 -84 0
1 173 95 0
1 176 -173 0
1 176 -265 0
1 176 168 0
1 176 -85 0
1 -176 111 0
1 -176 -252 0
1 -176 -161 0
1 -176 -259 0
1 176 89 0
1 -176 84 0
1 -182 -262 0
1 -182 265 0
1 -182 -168 0
1 182 266 0
1 -182 267 0
1 182 171 0
1 182 258 0
1 -182 268 0
1 182 269 0
1 -182 -185 0
1 184 158 0
1 -184 -182 0
1 184 266 0
1 184 259 0
1 -184 268 0
1 -184 95 0
1 -168 -174 0
1 -168 258 0
1 168 -270 0
1 -168 -192 0
1 168 -271 0
1 168 178 0
1 168 181 0
1 258 -192 0
1 -258 -168 0
1 258 -178 0
1 258 184 0
1 258 -176 0
1 -258 -74 0
1 258 -272 0
1 -258 194 0
1 -258 181 0
1 -258 -182 0
1 -265 -173 0
1 265 -174 0
1 265 -76 0
1 -265 -270 0
1 -265 273 0
1 265 274 0
1 265 184 0
1 -265 176 0
1 -265 175 0
1 265 259 0
1 -265 272 0
1 -265 275 0
1 259 174 0
1 259 -265 0
1 259 274 0
1 -259 -260 0
1 -259 184 0
1 -259 176 0
1 -259 -78 0
1 259 -276 0
1 259 -275 0
1 181 -107 0
1 -181 168 0
1 181 266 0
1 -181 267 0
1 181 -171 0
1 181 -172 0
1 -181 258 0
1 181 269 0
1 181 -95 0
1 -178 -92 0
1 178 266 0
1 178 172 0
1 178 106 0
1 178 269 0
1 178 -258 0
1 -178 -268 0
1 -178 181 0
1 194 -183 0
1 194 -107 0
1 -194 266 0
1 194 267 0
1 194 -258 0
1 194 275 0
1 194 -269 0
1 -192 168 0
1 -192 274 0
1 -192 266 0
1 -192 268 0
1 -192 -267 0
1 192 -277 0
1 192 194 0
1 267 205 0
1 267 186 0
1 267 -192 0
1 267 -178 0
1 -267 -166 0
1 267 184 0
1 267 278 0
1 267 -194 0
1 -267 -181 0
1 269 279 0
1 269 -205 0
1 -269 -186 0
1 269 -192 0
1 269 -184 0
1 -269 -267 0
1 -269 280 0
1 -269 189 0
1 -269 -194 0
1 -269 -84 0
1 269 281 0
1 266 282 0
1 266 -192 0
1 266 85 0
1 266 178 0
1 266 283 0
1 266 268 0
1 -266 284 0
1 266 -272 0
1 -266 194 0
1 -266 -181 0
1 266 182 0
1 -268 -279 0
1 268 -282 0
1 -268 270 0
1 268 192 0
1 268 -178 0
1 -268 284 0
1 268 -272 0
1 -268 -89 0
1 -268 -285 0
1 189 183 0
1 189 107 0
1 -189 -103 0
1 189 -116 0
1 -189 -267 0
1 189 -277 0
1 189 -106 0
1 189 177 0
1 189 115 0
1 -189 272 0
1 189 269 0
1 -186 183 0
1 -186 180 0
1 186 116 0
1 -186 286 0
1 -186 -106 0
1 -186 177 0
1 186 115 0
1 186 189 0
1 186 269 0
1 203 -183 0
1 203 205 0
1 203 -284 0
1 -203 277 0
1 -203 188 0
1 -203 -115 0
1 -205 183 0
1 -205 195 0
1 -205 116 0
1 -205 267 0
1 -205 286 0
1 205 193 0
1 205 -188 0
1 277 -287 0
1 -277 -180 0
1 277 -192 0
1 -277 -288 0
1 277 -172 0
1 277 -202 0
1 277 -203 0
1 277 194 0
1 180 -92 0
1 -180 -199 0
1 -180 -205 0
1 180 289 0
1 180 288 0
1 180 -277 0
1 -180 -203 0
1 180 189 0
1 -180 194 0
1 -286 -183 0
1 286 290 0
1 -286 205 0
1 -286 186 0
1 286 192 0
1 286 171 0
1 -286 289 0
1 -286 -203 0
1 -183 287 0
1 183 -186 0
1 183 -286 0
1 -183 291 0
1 -183 -203 0
1 -183 189 0
1 -183 -194 0
1 202 -180 0
1 -202 -199 0
1 202 195 0
1 -202 191 0
1 202 -112 0
1 -202 -277 0
1 -202 280 0
1 202 -193 0
1 202 115 0
1 199 -180 0
1 -199 -279 0
1 -199 -191 0
1 -199 -277 0
1 -199 -193 0
1 -199 188 0
1 -288 292 0
1 -288 180 0
1 -288 191 0
1 -288 -293 0
1 288 201 0
1 288 188 0
1 -292 -180 0
1 -292 -195 0
1 -292 -288 0
1 -292 277 0
1 292 -204 0
1 188 288 0
1 -188 -203 0
1 -188 -294 0
1 191 292 0
1 -191 -199 0
1 -191 205 0
1 191 103 0
1 -191 -295 0
1 191 -296 0
1 191 202 0
1 -191 -188 0
1 -191 -297 0
1 193 287 0
1 193 -292 0
1 193 195 0
1 -193 205 0
1 193 298 0
1 193 -288 0
1 193 -202 0
1 193 106 0
1 193 -299 0
1 195 -287 0
1 -195 292 0
1 -195 -199 0
1 195 107 0
1 -195 -205 0
1 195 -288 0
1 -195 -202 0
1 -195 299 0
1 -296 -191 0
1 296 -293 0
1 296 -201 0
1 -296 200 0
1 -297 -287 0
1 297 191 0
1 297 -293 0
1 -297 -296 0
1 -297 -188 0
1 -297 200 0
1 -295 -191 0
1 295 188 0
1 -295 204 0
1 -295 -200 0
1 295 -294 0
1 294 293 0
1 294 295 0
1 -294 188 0
1 -294 -204 0
1 294 -200 0
1 -294 299 0
1 200 -295 0
1 -200 296 0
1 200 198 0
1 -200 -297 0
1 201 296 0
1 -201 288 0
1 -201 294 0
1 201 -297 0
1 204 -293 0
1 -204 296 0
1 204 -115 0
1 204 294 0
1 293 -116 0
1 -293 -295 0
1 293 296 0
1 293 -288 0
1 293 -294 0
1 -226 -222 0
1 226 217 0
1 -226 -300 0
1 -226 -211 0
1 226 -212 0
1 -226 221 0
1 -226 -214 0
1 -222 -142 0
1 -222 -219 0
1 -222 -217 0
1 222 300 0
1 222 211 0
1 222 212 0
1 222 221 0
1 222 -218 0
1 -222 213 0
1 -235 232 0
1 235 -219 0
1 -235 -224 0
1 235 300 0
1 235 225 0
1 235 223 0
1 -235 221 0
1 -235 218 0
1 232 224 0
1 -232 -217 0
1 232 300 0
1 -232 -218 0
1 -232 -301 0
1 -232 156 0
1 300 -222 0
1 -300 234 0
1 300 235 0
1 300 -226 0
1 -300 240 0
1 216 -232 0
1 -216 -222 0
1 -216 -238 0
1 -216 -300 0
1 -216 -234 0
1 216 235 0
1 216 226 0
1 -216 240 0
1 -217 235 0
1 -217 -218 0
1 218 232 0
1 -218 222 0
1 218 235 0
1 218 -226 0
1 -218 -208 0
1 -234 -224 0
1 -234 219 0
1 -234 227 0
1 -234 -301 0
1 -234 -300 0
1 234 -152 0
1 -234 -225 0
1 -234 220 0
1 -234 229 0
1 -234 216 0
1 -231 -219 0
1 -231 -227 0
1 -231 -225 0
1 231 -223 0
1 231 -221 0
1 231 220 0
1 231 229 0
1 231 -216 0
1 231 -301 0
1 238 -233 0
1 -238 -302 0
1 -238 -132 0
1 -238 -163 0
1 -238 300 0
1 238 303 0
1 -238 -229 0
1 -238 -240 0
1 238 -301 0
1 238 216 0
1 -240 -224 0
1 -240 -302 0
1 240 132 0
1 240 -238 0
1 240 300 0
1 240 303 0
1 -240 -230 0
1 -240 229 0
1 -240 -164 0
1 -240 301 0
1 223 -224 0
1 223 304 0
1 223 -305 0
1 -223 -238 0
1 -223 212 0
1 223 -306 0
1 223 -307 0
1 -223 -247 0
1 223 -231 0
1 224 -236 0
1 224 -238 0
1 224 234 0
1 224 235 0
1 224 -307 0
1 224 -240 0
1 -224 231 0
1 -224 -214 0
1 225 -232 0
1 -225 304 0
1 -225 -238 0
1 225 308 0
1 -225 235 0
1 225 -307 0
1 225 -240 0
1 301 -304 0
1 -301 238 0
1 -301 -234 0
1 -301 225 0
1 -301 235 0
1 301 240 0
1 301 -231 0
1 236 -224 0
1 236 233 0
1 -236 302 0
1 236 -132 0
1 236 -159 0
1 236 -223 0
1 -236 303 0
1 -236 -230 0
1 236 -229 0
1 236 128 0
1 236 146 0
1 249 -224 0
1 249 -147 0
1 -249 236 0
1 -249 -128 0
1 249 223 0
1 -249 303 0
1 249 -160 0
1 -305 233 0
1 -305 302 0
1 305 239 0
1 -305 -241 0
1 305 169 0
1 305 147 0
1 -305 -303 0
1 305 -230 0
1 305 -247 0
1 305 -146 0
1 247 -233 0
1 -247 241 0
1 -247 305 0
1 247 147 0
1 247 -237 0
1 247 -223 0
1 -247 303 0
1 -247 230 0
1 247 -245 0
1 247 -239 0
1 230 -257 0
1 230 -254 0
1 230 -238 0
1 230 220 0
1 230 309 0
1 230 -249 0
1 230 -240 0
1 302 227 0
1 -302 254 0
1 -302 -238 0
1 302 256 0
1 302 230 0
1 302 -247 0
1 -302 249 0
1 302 240 0
1 303 -310 0
1 -303 -311 0
1 -303 304 0
1 -303 -305 0
1 -303 312 0
1 -303 221 0
1 -303 313 0
1 -303 307 0
1 303 247 0
1 -303 -249 0
1 -303 -240 0
1 233 -219 0
1 -233 -310 0
1 233 314 0
1 233 304 0
1 233 -305 0
1 233 238 0
1 233 312 0
1 233 -303 0
1 233 307 0
1 -233 249 0
1 -233 240 0
1 -254 -302 0
1 -254 -241 0
1 -254 -237 0
1 254 143 0
1 -254 230 0
1 -254 -239 0
1 254 315 0
1 254 -141 0
1 254 -154 0
1 244 -302 0
1 244 -254 0
1 244 147 0
1 244 143 0
1 -244 242 0
1 -244 170 0
1 244 307 0
1 244 146 0
1 244 141 0
1 244 -154 0
1 -257 -174 0
1 257 311 0
1 -257 241 0
1 -257 246 0
1 257 -256 0
1 257 230 0
1 -257 315 0
1 -257 -248 0
1 -257 154 0
1 -256 -302 0
1 -256 -241 0
1 256 -237 0
1 256 -175 0
1 256 316 0
1 -256 315 0
1 315 -250 0
1 315 -257 0
1 315 -305 0
1 315 -264 0
1 315 -247 0
1 237 -262 0
1 237 -250 0
1 -237 257 0
1 237 254 0
1 -237 -317 0
1 237 264 0
1 -237 252 0
1 237 -256 0
1 237 -244 0
1 -237 315 0
1 -239 -318 0
1 -239 -310 0
1 239 -257 0
1 -239 241 0
1 239 319 0
1 -239 -312 0
1 239 244 0
1 239 320 0
1 241 310 0
1 241 257 0
1 241 254 0
1 241 132 0
1 -241 -321 0
1 -241 -319 0
1 241 256 0
1 -241 -244 0
1 241 247 0
1 -241 -320 0
1 250 173 0
1 -250 -151 0
1 -250 310 0
1 250 -237 0
1 250 322 0
1 -250 246 0
1 -250 243 0
1 -250 -252 0
1 -250 -315 0
1 250 -248 0
1 -250 154 0
1 -252 151 0
1 252 250 0
1 252 -162 0
1 -252 -237 0
1 252 322 0
1 -252 -242 0
1 252 -312 0
1 252 165 0
1 -252 323 0
1 -262 -253 0
1 -262 -318 0
1 -262 251 0
1 262 162 0
1 262 322 0
1 -262 246 0
1 262 165 0
1 -262 315 0
1 262 248 0
1 262 182 0
1 264 253 0
1 -264 251 0
1 264 -162 0
1 -264 -184 0
1 -264 255 0
1 -264 324 0
1 -264 325 0
1 264 165 0
1 -264 248 0
1 264 323 0
1 323 250 0
1 -323 257 0
1 323 274 0
1 -323 246 0
1 323 252 0
1 323 256 0
1 323 326 0
1 323 -275 0
1 -323 141 0
1 -246 262 0
1 246 -250 0
1 246 -257 0
1 246 -327 0
1 246 -274 0
1 -246 -143 0
1 246 328 0
1 -246 -252 0
1 -246 256 0
1 248 250 0
1 248 -257 0
1 248 -329 0
1 -248 264 0
1 -248 -326 0
1 -248 -146 0
1 -248 -330 0
1 248 -320 0
1 -322 -250 0
1 322 257 0
1 322 329 0
1 -322 331 0
1 -322 -264 0
1 322 -252 0
1 -322 -256 0
1 322 248 0
1 322 320 0
1 260 -251 0
1 -260 265 0
1 -260 -246 0
1 260 -319 0
1 -260 161 0
1 -260 259 0
1 275 253 0
1 275 263 0
1 -275 -332 0
1 -275 274 0
1 -275 246 0
1 -275 -255 0
1 275 325 0
1 -275 333 0
1 275 261 0
1 275 -259 0
1 -275 -194 0
1 275 -323 0
1 -274 -253 0
1 -274 251 0
1 274 263 0
1 274 332 0
1 -274 -265 0
1 -274 192 0
1 -274 329 0
1 -274 -246 0
1 -274 255 0
1 274 325 0
1 -274 333 0
1 274 -259 0
1 -274 275 0
1 251 -334 0
1 251 270 0
1 251 -274 0
1 -251 -264 0
1 -251 -335 0
1 251 -284 0
1 -325 262 0
1 -325 -251 0
1 -325 -334 0
1 325 270 0
1 -325 274 0
1 325 260 0
1 325 243 0
1 325 336 0
1 -325 335 0
1 -325 -275 0
1 -253 262 0
1 -253 337 0
1 -253 -327 0
1 253 264 0
1 -253 255 0
1 -253 335 0
1 -253 -338 0
1 -253 154 0
1 -255 -262 0
1 255 334 0
1 -255 -337 0
1 -255 274 0
1 -255 260 0
1 -255 -242 0
1 -255 -264 0
1 255 -339 0
1 255 -335 0
1 255 326 0
1 -255 275 0
1 -272 251 0
1 -272 -263 0
1 -272 -332 0
1 -272 -270 0
1 -272 -265 0
1 -272 168 0
1 272 -261 0
1 -272 -259 0
1 272 -258 0
1 272 268 0
1 -270 251 0
1 -270 -258 0
1 270 186 0
1 270 -327 0
1 270 332 0
1 270 266 0
1 270 -325 0
1 -270 261 0
1 270 259 0
1 -270 268 0
1 284 282 0
1 -284 -273 0
1 284 -271 0
1 -284 -325 0
1 -284 333 0
1 -284 -340 0
1 -284 -268 0
1 284 276 0
1 282 251 0
1 282 -205 0
1 282 263 0
1 282 337 0
1 282 -332 0
1 282 -271 0
1 282 340 0
1 -282 -268 0
1 -332 290 0
1 332 279 0
1 332 282 0
1 332 274 0
1 332 -341 0
1 -332 291 0
1 -332 280 0
1 -332 -261 0
1 332 -284 0
1 332 272 0
1 332 275 0
1 261 342 0
1 261 290 0
1 -261 282 0
1 -261 -332 0
1 261 -274 0
1 -261 341 0
1 -261 280 0
1 261 -284 0
1 261 275 0
1 263 -343 0
1 263 -162 0
1 -263 -334 0
1 -263 282 0
1 263 -274 0
1 -263 333 0
1 -263 284 0
1 263 272 0
1 333 342 0
1 -333 -343 0
1 -333 334 0
1 333 274 0
1 333 341 0
1 -333 -165 0
1 -333 344 0
1 -333 -284 0
1 333 -272 0
1 -333 275 0
1 -280 183 0
1 280 279 0
1 -280 332 0
1 -280 -273 0
1 -280 271 0
1 -280 -267 0
1 280 286 0
1 280 335 0
1 -280 261 0
1 280 340 0
1 -280 269 0
1 -279 199 0
1 279 -332 0
1 279 273 0
1 -279 -271 0
1 279 286 0
1 279 261 0
1 -279 -276 0
1 279 -268 0
1 279 -269 0
1 -291 -183 0
1 -291 332 0
1 -291 273 0
1 -291 -283 0
1 -291 -278 0
1 -291 286 0
1 291 -288 0
1 -291 261 0
1 -291 276 0
1 -290 -183 0
1 -290 292 0
1 -290 -343 0
1 290 -273 0
1 290 -271 0
1 -290 -283 0
1 290 -278 0
1 -290 -340 0
1 271 -287 0
1 -271 -279 0
1 -271 -168 0
1 271 -289 0
1 -271 -291 0
1 -271 280 0
1 271 -284 0
1 271 -340 0
1 340 -287 0
1 -340 -291 0
1 340 -280 0
1 -340 258 0
1 340 299 0
1 273 279 0
1 -273 -282 0
1 -273 265 0
1 -273 345 0
1 -273 -341 0
1 -273 -291 0
1 -273 -280 0
1 -276 -273 0
1 276 -345 0
1 -276 -291 0
1 -276 -280 0
1 -276 259 0
1 -276 -346 0
1 289 -287 0
1 289 -183 0
1 -289 -180 0
1 -289 -195 0
1 289 -271 0
1 289 283 0
1 289 278 0
1 289 286 0
1 289 277 0
1 -289 340 0
1 -289 -285 0
1 287 -342 0
1 -287 -271 0
1 -287 -193 0
1 -287 297 0
1 -298 195 0
1 -298 -271 0
1 -298 283 0
1 -298 295 0
1 298 -345 0
1 298 -193 0
1 298 281 0
1 298 285 0
1 298 -299 0
1 299 -283 0
1 -299 278 0
1 299 193 0
1 -299 281 0
1 -299 -346 0
1 278 287 0
1 278 -290 0
1 -278 267 0
1 278 -291 0
1 278 -281 0
1 -278 299 0
1 -281 -287 0
1 -281 -290 0
1 281 298 0
1 -281 -278 0
1 281 -289 0
1 281 -291 0
1 -281 -269 0
1 281 -299 0
1 -283 -290 0
1 -283 -298 0
1 -283 -285 0
1 -283 -291 0
1 -285 287 0
1 -285 283 0
1 -285 -291 0
1 285 -268 0
1 -285 -299 0
1 -304 233 0
1 -304 223 0
1 -304 303 0
1 -304 307 0
1 304 347 0
1 -304 -301 0
1 -307 224 0
1 307 233 0
1 -307 -304 0
1 307 -348 0
1 307 -223 0
1 -307 244 0
1 307 -347 0
1 -307 301 0
1 -311 -349 0
1 -311 257 0
1 -311 348 0
1 -311 -306 0
1 311 -303 0
1 -311 -350 0
1 311 351 0
1 316 -349 0
1 316 -233 0
1 316 -311 0
1 -316 348 0
1 316 -352 0
1 316 -308 0
1 316 306 0
1 316 -256 0
1 -316 303 0
1 316 -347 0
1 -316 -350 0
1 316 351 0
1 352 310 0
1 -352 311 0
1 352 -304 0
1 -352 353 0
1 352 -312 0
1 -352 350 0
1 -350 -318 0
1 350 310 0
1 350 -311 0
1 -350 -304 0
1 -350 312 0
1 -350 216 0
1 -350 354 0
1 -348 311 0
1 -348 -304 0
1 -348 217 0
1 -348 -316 0
1 -348 347 0
1 347 -311 0
1 -347 -304 0
1 347 307 0
1 -310 -250 0
1 310 -241 0
1 310 312 0
1 -310 -306 0
1 310 -230 0
1 -310 -239 0
1 -310 351 0
1 -312 310 0
1 312 302 0
1 -312 241 0
1 312 308 0
1 -312 306 0
1 -312 -230 0
1 -312 -350 0
1 -318 349 0
1 318 241 0
1 318 352 0
1 -318 324 0
1 -318 -308 0
1 318 313 0
1 324 -349 0
1 -324 -314 0
1 -324 352 0
1 -324 308 0
1 -324 306 0
1 -324 309 0
1 -324 239 0
1 324 -350 0
1 324 351 0
1 -306 311 0
1 -306 329 0
1 -306 -319 0
1 306 312 0
1 306 -316 0
1 306 330 0
1 -306 -320 0
1 -349 224 0
1 -349 318 0
1 -349 -355 0
1 349 -310 0
1 349 356 0
1 349 -324 0
1 349 -312 0
1 -349 -316 0
1 -349 -357 0
1 349 -330 0
1 -349 -320 0
1 308 310 0
1 -308 -311 0
1 308 -356 0
1 308 -312 0
1 308 358 0
1 -308 -316 0
1 -308 357 0
1 308 -351 0
1 351 -359 0
1 -351 -311 0
1 -351 -301 0
1 -351 -324 0
1 351 308 0
1 351 357 0
1 -320 -349 0
1 -320 314 0
1 -320 -360 0
1 320 241 0
1 -320 237 0
1 -320 322 0
1 320 306 0
1 -320 313 0
1 320 309 0
1 320 239 0
1 320 315 0
1 -319 314 0
1 319 -241 0
1 -319 237 0
1 319 260 0
1 -319 306 0
1 -319 239 0
1 319 315 0
1 319 320 0
1 330 349 0
1 330 314 0
1 330 -321 0
1 -330 -317 0
1 330 322 0
1 330 306 0
1 -330 -313 0
1 330 -361 0
1 -330 -248 0
1 329 317 0
1 329 274 0
1 -329 306 0
1 329 -313 0
1 -329 330 0
1 -309 362 0
1 309 337 0
1 -309 329 0
1 -309 -324 0
1 -309 -363 0
1 309 -320 0
1 360 318 0
1 -360 302 0
1 -360 362 0
1 360 -337 0
1 360 329 0
1 -360 324 0
1 -360 309 0
1 -360 363 0
1 360 -326 0
1 360 -330 0
1 -360 -320 0
1 -313 -318 0
1 -313 314 0
1 -313 362 0
1 -313 364 0
1 313 -329 0
1 -313 -303 0
1 -313 -365 0
1 -313 357 0
1 314 -318 0
1 314 -233 0
1 314 -366 0
1 314 362 0
1 314 -364 0
1 -314 356 0
1 -314 313 0
1 -314 -367 0
1 -326 360 0
1 326 321 0
1 326 -317 0
1 326 -255 0
1 -326 368 0
1 326 309 0
1 326 -272 0
1 -326 357 0
1 326 248 0
1 326 -323 0
1 327 253 0
1 327 360 0
1 327 270 0
1 327 -322 0
1 -327 317 0
1 327 246 0
1 327 -255 0
1 -327 -361 0
1 -327 -326 0
1 327 -368 0
1 327 -248 0
1 327 323 0
1 338 253 0
1 338 321 0
1 338 -328 0
1 338 255 0
1 -338 309 0
1 338 -284 0
1 338 -367 0
1 -338 -369 0
1 338 370 0
1 337 -364 0
1 -337 -317 0
1 337 -328 0
1 -337 -309 0
1 -337 -338 0
1 -337 -361 0
1 -337 -369 0
1 337 370 0
1 368 343 0
1 368 337 0
1 -368 327 0
1 -368 -317 0
1 -368 -329 0
1 -368 315 0
1 368 371 0
1 -368 335 0
1 -368 326 0
1 -317 -237 0
1 317 329 0
1 -317 371 0
1 -317 326 0
1 -317 368 0
1 -317 330 0
1 -361 372 0
1 -361 -373 0
1 -361 -337 0
1 -361 327 0
1 -361 321 0
1 -361 -374 0
1 361 363 0
1 -361 -338 0
1 361 -326 0
1 -361 330 0
1 -321 -372 0
1 321 373 0
1 -321 362 0
1 321 337 0
1 321 327 0
1 -321 -371 0
1 321 -374 0
1 321 -363 0
1 -321 361 0
1 335 -253 0
1 335 -263 0
1 -335 -317 0
1 -335 -331 0
1 335 -328 0
1 335 280 0
1 335 -363 0
1 -335 -368 0
1 335 -370 0
1 334 251 0
1 334 -279 0
1 334 263 0
1 -334 -317 0
1 -334 331 0
1 334 328 0
1 334 -255 0
1 334 325 0
1 -334 335 0
1 334 -369 0
1 -344 375 0
1 344 -343 0
1 -344 328 0
1 -344 339 0
1 344 333 0
1 344 -374 0
1 344 368 0
1 -344 369 0
1 -343 376 0
1 -343 -373 0
1 -343 -263 0
1 343 317 0
1 -343 331 0
1 -343 -328 0
1 343 339 0
1 -343 -368 0
1 -370 -343 0
1 370 -334 0
1 -370 337 0
1 370 -341 0
1 -370 -344 0
1 370 -335 0
1 370 -323 0
1 328 -342 0
1 -328 -343 0
1 -328 -334 0
1 -328 370 0
1 328 -337 0
1 -328 345 0
1 -328 -341 0
1 -328 346 0
1 -369 -337 0
1 -369 331 0
1 -369 -377 0
1 369 -371 0
1 369 344 0
1 -369 -338 0
1 -331 372 0
1 331 343 0
1 -331 322 0
1 -331 344 0
1 -331 -369 0
1 331 -335 0
1 -341 -342 0
1 341 263 0
1 -341 336 0
1 -341 -333 0
1 341 -261 0
1 342 -287 0
1 342 375 0
1 342 372 0
1 -342 -376 0
1 342 273 0
1 342 341 0
1 -342 333 0
1 345 -375 0
1 345 273 0
1 345 328 0
1 -345 -339 0
1 -345 336 0
1 -345 -276 0
1 346 -273 0
1 346 -336 0
1 346 -299 0
1 346 370 0
1 376 -251 0
1 -376 -343 0
1 -376 -336 0
1 376 -344 0
1 -376 -346 0
1 336 376 0
1 336 345 0
1 336 -325 0
1 -336 -341 0
1 375 343 0
1 -375 -339 0
1 375 344 0
1 -375 -346 0
1 -339 -342 0
1 -339 -375 0
1 339 -344 0
1 357 353 0
1 357 308 0
1 357 -306 0
1 357 313 0
1 -357 -326 0
1 -357 354 0
1 356 -353 0
1 356 313 0
1 356 -357 0
1 356 -378 0
1 -356 -354 0
1 356 -351 0
1 -367 359 0
1 -367 -355 0
1 -367 -364 0
1 -367 379 0
1 -367 358 0
1 -367 313 0
1 367 338 0
1 367 378 0
1 364 -379 0
1 364 353 0
1 -364 -380 0
1 -364 378 0
1 -353 362 0
1 353 -364 0
1 353 -352 0
1 -354 -373 0
1 354 -362 0
1 -354 364 0
1 -354 356 0
1 354 -353 0
1 -354 374 0
1 354 -357 0
1 -379 356 0
1 379 -348 0
1 379 -367 0
1 -379 357 0
1 -379 378 0
1 -378 379 0
1 363 -360 0
1 363 -362 0
1 -363 321 0
1 -363 -353 0
1 363 358 0
1 -363 380 0
1 -363 -313 0
1 362 -359 0
1 362 355 0
1 -362 -321 0
1 362 -353 0
1 -362 -358 0
1 -362 -380 0
1 -362 309 0
1 -362 361 0
1 -362 -354 0
1 -374 355 0
1 374 373 0
1 -374 321 0
1 374 -353 0
1 -374 358 0
1 374 -344 0
1 374 381 0
1 -374 -361 0
1 -374 -354 0
1 373 343 0
1 -373 382 0
1 -373 -321 0
1 373 380 0
1 373 -374 0
1 -373 -354 0
1 380 372 0
1 380 355 0
1 380 -373 0
1 -380 -364 0
1 380 374 0
1 380 -363 0
1 -355 -383 0
1 -355 349 0
1 355 -372 0
1 -355 -373 0
1 355 -377 0
1 -355 -371 0
1 355 -380 0
1 355 -374 0
1 -358 359 0
1 -358 -362 0
1 358 -364 0
1 358 308 0
1 358 363 0
1 -359 -362 0
1 -359 -358 0
1 359 363 0
1 371 355 0
1 -371 366 0
1 371 382 0
1 -371 321 0
1 -371 -317 0
1 -371 -331 0
1 371 -341 0
1 371 380 0
1 371 365 0
1 -371 -381 0
1 372 -366 0
1 -372 382 0
1 -372 317 0
1 -372 331 0
1 372 371 0
1 -372 -381 0
1 -372 361 0
1 372 368 0
1 -377 -383 0
1 -377 -331 0
1 -377 -345 0
1 -377 -365 0
1 383 -331 0
1 383 -377 0
1 -381 -372 0
1 381 -373 0
1 381 -377 0
1 381 -371 0
1 381 -309 0
1 -382 -383 0
1 382 373 0
1 382 360 0
1 382 371 0
1 -382 -374 0
1 365 -383 0
1 365 377 0
1 365 371 0
1 -365 -313 0
1 365 -374 0
1 -366 -383 0
1 366 -372 0
1 366 -314 0
1 -366 373 0
1 366 -377 0
1 366 374 0
